(set-logic QF_S) 
(declare-fun N () String) 
(declare-fun J () String) 
(declare-fun D () String) 
(declare-fun M () String) 
(declare-fun H () String) 
(declare-fun L () String) 
(assert (= (str.++ "a" "a" "b" "c" "c" "b" "c" N "c" J) (str.++ "a" "a" "b" "c" "c" "b" "c" "c" "c" "b" "c" "a" "a" D "a" "c" M "a" "b" "b" "a" "c" "c" "c" "b" "b" "b" H "b" "a" "a" "b" L "c" "c" "a" "c" "b" "b" "a" "a")))
(check-sat) 
(get-model)